NAME : CMT11T.998793.tour
COMMENT : Cost = 0_998793
COMMENT : Found by LKH [Keld Helsgaun] Fri Sep 15 01:03:47 2017
TYPE : TOUR
DIMENSION : 127
TOUR_SECTION
1
96
110
22
21
24
27
29
33
36
30
37
35
32
31
34
28
25
23
26
20
17
18
119
91
92
124
116
38
39
40
43
42
45
48
47
50
51
52
49
46
44
41
111
117
102
125
89
87
112
83
120
126
109
9
13
14
15
16
12
11
10
8
7
6
5
4
2
3
82
123
54
56
59
57
61
64
67
65
63
62
66
60
58
55
53
99
101
122
106
107
105
104
74
77
69
78
80
81
79
73
76
75
72
71
70
68
108
121
127
103
100
97
94
95
98
115
19
84
114
118
85
113
86
90
93
88
-1
EOF
